c description: Random 3-CNF over 14 variables and 70 clauses
p cnf 14 70
-7 10 -13 0
2 9 10 0
-3 -7 8 0
-1 10 -12 0
4 5 9 0
1 2 -11 0
-2 -4 -14 0
3 8 11 0
-2 7 9 0
-2 -3 12 0
2 -11 14 0
4 8 -10 0
5 -10 -14 0
7 -10 13 0
7 11 12 0
-2 -3 4 0
-4 6 10 0
2 -5 11 0
-3 -4 13 0
5 -7 -11 0
2 7 10 0
3 -12 14 0
4 -8 -13 0
1 -3 -10 0
4 12 -13 0
6 -10 13 0
-4 -6 7 0
-3 -5 -6 0
-4 -9 -11 0
-2 4 7 0
-1 -4 -8 0
2 -3 7 0
-3 7 -14 0
2 -5 9 0
3 -9 -12 0
5 -11 14 0
-2 9 10 0
8 -12 13 0
-8 -9 -14 0
5 -6 8 0
5 9 -10 0
4 10 12 0
2 -7 -14 0
1 -4 9 0
1 -2 5 0
2 -3 -5 0
1 -4 6 0
-5 -13 14 0
1 -6 -12 0
2 8 -10 0
-6 -10 12 0
-3 9 13 0
-6 -9 14 0
-3 10 -13 0
1 -4 -10 0
-5 -9 13 0
2 9 -13 0
4 9 12 0
-3 9 12 0
4 8 -11 0
1 -7 -13 0
10 -12 -14 0
-6 -8 -9 0
2 10 -12 0
-1 3 -13 0
-2 13 14 0
-3 -4 -14 0
6 -11 -14 0
3 4 -6 0
9 -12 14 0